sat
(:max-memory                   18.43
 :memory                       18.43
 :nlsat-arith-var              3
 :nlsat-atoms                  8
 :nlsat-bool-var               1
 :nlsat-clauses                7
 :nlsat-conflicts              1
 :nlsat-irrational-assignments 3
 :nlsat-propagations           13
 :nlsat-stages                 6
 :num-allocs                   41874
 :rlimit-count                 911
 :time                         0.00
 :total-time                   0.02)
